0000000000000000
0000000000000000
0011111111110000
0011111111111000
0011111111111100
0011100001111100
0000110000111110
0011110000111110
0011110000111110
0011110000111110
0011110000111110
0011110000111110
0011110000111110
0011110000111110
0011110000111110
0000000000000000
